41517 35227
3752 28797
14370 44455
26687 61888
62657 58180
13231 45483
30350 59487
4324 1932
48313 17199
38373 36803
18325 18379
37353 23307
42988 62578
29562 65529
55460 31984
8626 57843
38635 20397
4873 215
48332 22047
27908 4843
56652 4241
31133 27235
8367 47826
18589 64163
31193 16983
29154 45678
3817 20883
41380 20470
30643 15222
15082 25672
34597 32773
41542 43643
41177 17027
22557 35743
16997 11327
32148 10328
24417 46738
5733 4145
43025 18408
20536 53834
62592 14004
28589 36111
353 45635
35049 64938
58858 7610
12411 51861
59853 39677
33051 50588
11142 45874
50361 32553
65404 44704
24899 34715
18500 2679
4903 48994
60675 25249
27369 60135
40251 49489
13309 17856
27432 11808
43925 42962
24691 48810
168 9099
21449 61963
54180 11142
25639 16739
22636 39938
